c instance by G2
c solution = 001000100
c Known solution cost is 436 
p cnf 9 30
w 18 18 30 39 56 79 69 34 93
-3 -6 9 0
-3 -1 -2 0
1 5 -2 0
-8 5 2 0
7 4 1 0
5 -4 6 0
-3 -5 2 0
4 -1 8 0
-4 7 -8 0
-7 -5 9 0
1 6 -8 0
8 -6 7 0
-3 2 -6 0
-6 -9 -5 0
-1 -5 9 0
8 -4 -7 0
4 -8 -5 0
1 -6 9 0
8 -9 2 0
3 7 6 0
3 -7 8 0
7 -8 5 0
-3 5 -1 0
8 -2 7 0
-3 7 9 0
-1 4 6 0
-9 -3 -7 0
-9 -1 -5 0
4 3 -6 0
6 -1 -4 0
